5 6 4 2 8 5 5
0 1 7 2 2 2 2 3
1 0 2 1000000 1 1000000 1000000 1000000
0 0 0 1 1000000 1000000 1000000 1000000
0 0 0 0 1000000 1000000 1000000 1000000
0 0 0 0 0 4 1000000 1000000
0 0 0 0 0 0 1 1000000
0 0 0 0 0 0 0 1
0 0 0 0 0 0 0 0